NAME: dataset20
TYPE: TSP
COMMENT: 20 random locations
DIMENSION: 20
EDGE_WEIGHT_TYPE: EUC_2D
NODE_COORD_SECTION
1 1.0 374.0
2 1.0 104.4761904762
3 1.0 211.5625
4 1.0 -77.6511627907
5 1.0 61.1111111111
6 1.0 -12.2307692308
7 1.0 46.5263157895
8 1.0 -26.7011494253
9 1.0 -81.2857142857
10 1.0 -8.0458715596
11 1.0 19.0
12 1.0 28.1145038168
13 1.0 81.014084507
14 1.0 -122.2549019608
15 1.0 65.2195121951
16 1.0 -66.4
17 1.0 21.0537634409
18 1.0 -42.5634517766
19 1.0 -59.3557692308
20 1.0 35.0273972603
EOF
